n_trains = 50;
n_tracks = 11;
tracks = [{1, 2, 3, 4, 5},{6, 7, 8, 9, 10},{11, 12, 13, 14, 15},{16, 17, 18, 19, 20},{21, 22},{23, 24, 25, 26, 27, 28, 29, 30},{31, 32, 33},{34, 35, 36},{37, 38, 39},{40},{41, 42, 43, 44, 45, 46, 47, 48, 49, 50}];
arrival_order = [1, 2, 3, 4, 5, 6, 7, 8, 9, 10, 11, 12, 13, 14, 15, 16, 17, 18, 19, 20, 21, 22, 23, 24, 25, 26, 27, 28, 29, 30, 31, 32, 33, 34, 35, 36, 37, 38, 39, 40, 41, 42, 43, 44, 45, 46, 47, 48, 49, 50];
departure_order = [25, 41, 4, 28, 31, 34, 37, 8, 49, 20, 5, 46, 48, 36, 38, 1, 16, 44, 2, 13, 33, 23, 24, 47, 35, 17, 6, 32, 45, 9, 12, 43, 30, 7, 11, 42, 10, 26, 40, 19, 15, 29, 39, 22, 50, 14, 3, 27, 21, 18];
